80
366
58
0 2
0 22
0 35
1 7
1 10
1 11
1 13
1 31
1 38
2 6
2 9
2 12
2 22
2 35
3 4
3 8
3 16
3 18
4 8
4 16
4 18
4 34
4 36
4 37
5 6
5 9
6 9
6 12
6 35
7 10
7 11
7 13
7 15
7 17
7 21
7 23
7 31
7 51
7 56
8 16
8 18
8 34
8 36
8 37
8 39
8 48
8 61
8 66
9 12
9 26
9 27
9 35
10 11
10 13
10 31
10 38
11 13
11 31
11 60
11 71
12 26
12 27
12 35
12 44
12 46
13 19
13 20
13 31
13 52
13 53
13 60
13 71
14 16
14 18
14 48
15 17
15 22
15 25
15 45
15 51
15 56
15 68
15 74
15 75
16 18
16 32
16 33
16 48
16 67
16 73
17 22
17 25
17 45
17 51
17 56
17 68
17 74
17 75
18 48
19 20
19 23
19 50
19 54
19 58
19 59
19 61
19 64
19 66
19 67
19 69
19 73
19 76
20 52
20 53
20 57
21 23
21 51
21 55
21 60
21 61
21 62
21 71
22 25
22 30
22 31
22 35
22 38
22 45
22 68
22 74
22 75
23 28
23 47
23 51
23 58
23 59
23 73
23 76
24 25
24 42
24 45
24 68
24 74
24 75
25 42
25 45
25 68
25 74
25 75
26 27
26 35
26 38
26 44
26 46
26 52
26 57
26 67
26 73
26 76
27 35
27 40
27 41
27 44
27 46
27 55
27 58
27 64
27 69
28 47
29 32
30 31
30 35
30 38
31 35
31 38
32 33
32 67
32 73
33 67
33 73
34 36
34 37
35 38
36 37
36 39
36 61
36 66
38 44
38 52
38 57
38 67
38 73
38 76
39 42
39 43
39 45
39 47
39 61
39 66
40 41
40 46
40 50
40 55
40 58
40 60
40 62
40 64
40 65
40 68
40 69
40 71
40 74
40 75
41 46
41 56
41 59
41 64
41 69
41 77
42 43
42 45
42 47
42 61
42 66
42 68
42 74
42 75
43 45
43 47
43 61
43 66
44 46
44 52
44 57
44 67
44 73
44 76
45 47
45 61
45 66
45 68
45 74
45 75
46 64
46 69
47 61
47 66
48 49
48 51
48 56
48 63
48 64
48 72
49 51
49 56
49 63
49 64
49 72
50 54
50 55
50 59
50 60
50 62
50 65
50 68
50 71
50 74
50 75
51 56
51 63
51 64
51 72
52 53
52 57
52 67
52 73
52 76
53 57
54 59
55 58
55 60
55 61
55 62
55 65
55 68
55 71
55 74
55 75
56 59
56 63
56 64
56 72
56 77
57 67
57 73
57 76
58 59
58 73
58 76
59 64
59 73
59 76
59 77
60 61
60 62
60 63
60 65
60 68
60 70
60 71
60 74
60 75
61 62
61 64
61 66
61 67
61 69
61 71
61 73
61 76
62 63
62 65
62 68
62 70
62 71
62 74
62 75
63 64
63 65
63 68
63 70
63 72
63 78
64 66
64 67
64 69
64 72
64 73
64 76
64 77
65 68
65 70
65 71
65 74
65 75
66 67
66 69
66 73
66 76
67 69
67 73
67 76
68 70
68 71
68 74
68 75
69 73
69 76
70 77
70 79
71 74
71 75
72 78
73 76
74 75
77 79
0
1
2
3
4
5
6 7
8 9
10 11
12
13
14
15 16
17 18
19 20
21 22
23
24
25 26
27 28
29
30
31
32
33
34
35 36
37
38
39 40
41
42
43
44 45
46
47
48
49
50 51
52
53
54
55
56
57
58 59
60
61 62
63 64
65 66
67 68
69 70
71
72
73 74
75 76
77 78
79
